44
1000
200	1
199	3
197	2
196	6
195	1
194	2
193	1
191	2
190	3
189	1
188	2
187	2
186	1
185	3
184	5
183	2
182	2
181	2
180	2
179	1
177	1
176	4
175	2
174	1
173	2
172	3
171	4
170	2
169	5
168	2
167	2
166	2
165	4
164	1
163	3
162	1
161	3
158	1
155	1
154	3
153	3
152	2
151	3
150	1
